39
 1 312 8
 2 646 17
 3 481 13
 4 144 4
 5 490 14
 6 204 6
 7 99 3
 8 192 6
 9 465 15
 10 450 15
 11 232 8
 12 448 16
 13 324 12
 14 52 2
 15 275 11
 16 288 12
 17 161 7
 18 330 15
 19 336 16
 20 80 4
 21 76 4
 22 324 18
 23 34 2
 24 16 1
 25 255 17
 26 210 15
 27 130 10
 28 192 16
 29 22 2
 30 90 9
 31 63 7
 32 72 9
 33 91 13
 34 96 16
 35 20 4
 36 32 8
 37 24 8
 38 4 2
 39 15 15
624